;; ===================== PROJECTED CANON (QE) =====================
;; Each clause below is entailed by Proj = ∃W.F over the canonical vocabulary.
;; Units appear first for clarity; OR-clauses (SAT-filtered) follow.
;; ==================================================================

;; Unit Bool constraints (entailed)
(assert (not patient_is_pregnant_now))
(assert (not patient_is_breastfeeding_now))
(assert (not patient_has_finding_of_disease_of_liver_now))
(assert (not patient_has_finding_of_disorder_of_intestine_now))
(assert (not patient_has_finding_of_disorder_of_lung_now))
(assert (not patient_has_finding_of_disorder_of_nervous_system_now))
(assert (not patient_has_finding_of_disorder_of_stomach_now))
(assert (not patient_has_finding_of_heart_disease_now))
(assert (not patient_has_finding_of_kidney_disease_now))
(assert (not patient_has_finding_of_cranial_nerve_disorder_now))
(assert (not patient_has_finding_of_other_disease_that_may_place_patient_at_risk_if_participating_in_trial_now))
(assert (not patient_has_diagnosis_of_human_immunodeficiency_virus_infection_inthehistory))
(assert (not patient_has_finding_of_immunosuppression_inthehistory))
(assert (not patient_has_finding_of_alcohol_abuse_now))
(assert (not patient_has_finding_of_finding_relating_to_drug_misuse_behavior_now))
(assert (not patient_has_finding_of_difficult_venous_access_now))
